output_file = "9-1-B-100-1.60-81.csv";

n_days = 100;
n_shelf_types = 2;
n_crops = 1;

num_shelves = [
    6, 3
];


crop_shelf_type_compatible = [
    [1, 1]
];

crop_growth_days = [15];

n_configurations = 2;

crop_growth_day_config = [
    [1, 1, 1, 2, 2, 2, 2, 2, 2, 2, 2, 2, 2, 2, 2]
];

capacity = [
    [12, 12],
[12, 12]
];

demand = [
    [0, 0, 0, 0, 0, 0, 0, 0, 0, 0, 0, 0, 0, 0, 0, 6, 0, 0, 0, 0, 0, 0, 9, 0, 0, 0, 0, 0, 0, 0, 0, 0, 0, 0, 1, 9, 0, 6, 0, 0, 11, 0, 0, 4, 0, 0, 0, 0, 0, 3, 8, 12, 9, 0, 0, 1, 6, 0, 0, 17, 0, 0, 0, 0, 6, 0, 0, 0, 14, 4, 0, 0, 11, 0, 0, 0, 0, 6, 0, 0, 9, 0, 0, 6, 0, 0, 12, 0, 0, 0, 0, 11, 6, 0, 11, 17, 0, 0, 4, 0]
];
